decision_x1=[0,4];
decision_x2=[0,4];
decision_x3=[0,4];
decision_x4=[0,4];
decision_x5=[0,4];
decision_x6=[0,4];
random_y1=[0,4];
random_y2=[0,4];
random_y3=[0,4];
constraint_x3_x1=[
0,1,0.89|
0,2,2.4|
0,3,4.2|
0,4,1.5|
1,0,6|
1,2,2.3|
1,3,3|
1,4,8.1|
2,0,5.6|
2,1,6.9|
2,3,6.6|
2,4,6.8|
3,0,0.56|
3,1,2.3|
3,2,6|
3,4,3.1|
4,0,2.7|
4,1,6|
4,2,2.3|
4,3,3.5|
];
constraint_x3_x2=[
0,1,9.6|
0,2,5.5|
0,3,9.1|
0,4,3.1|
1,0,2.1|
1,2,3.3|
1,3,0.56|
1,4,7.7|
2,0,9|
2,1,7.3|
2,3,6.2|
2,4,7.9|
3,0,8.9|
3,1,0.56|
3,2,2.2|
3,4,0.0034|
4,0,8.6|
4,1,6|
4,2,3.3|
4,3,0.77|
];
constraint_x4_x1=[
0,1,7.7|
0,2,2.8|
0,3,5.3|
0,4,7.8|
1,0,1|
1,2,8.9|
1,3,6|
1,4,2.3|
2,0,9.8|
2,1,2.1|
2,3,0.93|
2,4,5.6|
3,0,6.4|
3,1,7.3|
3,2,0.1|
3,4,2.8|
4,0,9.2|
4,1,9.2|
4,2,1.1|
4,3,0.96|
];
constraint_x4_x3=[
0,1,4.3|
0,2,7.8|
0,3,7.1|
0,4,4.3|
1,0,9.2|
1,2,1.2|
1,3,5.9|
1,4,7.9|
2,0,7.3|
2,1,2.6|
2,3,0.61|
2,4,5.7|
3,0,9.8|
3,1,8.4|
3,2,3.8|
3,4,5.4|
4,0,9.4|
4,1,3.1|
4,2,4.3|
4,3,5.3|
];
constraint_x5_x1=[
0,1,5.2|
0,2,2.3|
0,3,5.1|
0,4,7|
1,0,5.8|
1,2,6.9|
1,3,7.9|
1,4,3.8|
2,0,6.5|
2,1,9.6|
2,3,9.3|
2,4,0.087|
3,0,9|
3,1,3.4|
3,2,4.1|
3,4,6.8|
4,0,6|
4,1,2.3|
4,2,6.2|
4,3,2.2|
];
constraint_x5_x3=[
0,1,4.5|
0,2,4.8|
0,3,7.1|
0,4,5.4|
1,0,4.1|
1,2,0.1|
1,3,8.2|
1,4,4.1|
2,0,4.7|
2,1,8|
2,3,4.9|
2,4,0.32|
3,0,7.1|
3,1,9.8|
3,2,3.6|
3,4,4.8|
4,0,2.2|
4,1,0.059|
4,2,3.3|
4,3,4.1|
];
constraint_x6_x2=[
0,1,5.6|
0,2,1.6|
0,3,10|
0,4,2.8|
1,0,3.4|
1,2,8.1|
1,3,7.6|
1,4,0.62|
2,0,5.6|
2,1,0.58|
2,3,3.2|
2,4,6.3|
3,0,3.7|
3,1,4|
3,2,4.3|
3,4,7.2|
4,0,0.63|
4,1,9|
4,2,3.7|
4,3,8.9|
];
constraint_x6_x3=[
0,1,2.8|
0,2,9.6|
0,3,0.16|
0,4,0.15|
1,0,5.9|
1,2,1.3|
1,3,3.2|
1,4,8.2|
2,0,4.8|
2,1,9.2|
2,3,1.4|
2,4,1.8|
3,0,2.9|
3,1,5.5|
3,2,1.3|
3,4,6.1|
4,0,7.4|
4,1,5.5|
4,2,0.73|
4,3,9.4|
];
constraint_x1_y1=[
0,0,9.8|
0,1,1.3|
0,2,1.7|
0,3,5.5|
0,4,1.2|
1,0,8.9|
1,1,1.4|
1,2,6.8|
1,3,6.4|
1,4,9.4|
2,0,3.6|
2,1,9.1|
2,2,0.22|
2,3,1.1|
2,4,8.3|
3,0,2.7|
3,1,1|
3,2,2.6|
3,3,2.8|
3,4,3.9|
4,0,5.9|
4,1,2.5|
4,2,8.5|
4,3,6|
4,4,6.6|
];
constraint_x2_y2=[
0,0,3.8|
0,1,8.3|
0,2,0.07|
0,3,4.6|
0,4,9.3|
1,0,6.6|
1,1,5.6|
1,2,0.16|
1,3,5.3|
1,4,5.9|
2,0,7.8|
2,1,5.5|
2,2,4|
2,3,0.39|
2,4,5.3|
3,0,3.7|
3,1,9.2|
3,2,0.42|
3,3,0.75|
3,4,4.1|
4,0,5.9|
4,1,6|
4,2,7.2|
4,3,7.2|
4,4,8.1|
];
constraint_x3_y3=[
0,0,2.6|
0,1,0.12|
0,2,9.1|
0,3,3.9|
0,4,0.75|
1,0,0.73|
1,1,8.2|
1,2,6.1|
1,3,4.9|
1,4,3.9|
2,0,6.9|
2,1,1.7|
2,2,8.9|
2,3,4.9|
2,4,2.3|
3,0,7.8|
3,1,5.1|
3,2,9|
3,3,6.6|
3,4,9|
4,0,8.4|
4,1,7.1|
4,2,0.54|
4,3,2.6|
4,4,7.6|
];
initial_distribution_y1=[0.36,0.17,0.044,0.3,0.13];
initial_distribution_y2=[0.23,0.24,0.19,0.21,0.12];
initial_distribution_y3=[0.27,0.16,0.15,0.24,0.17];
transition_y1=[
0.13,0.26,0.12,0.15,0.33|
0.32,0.16,0.069,0.033,0.41|
0.17,0.2,0.03,0.3,0.31|
0.045,0.5,0.031,0.12,0.31|
0.079,0.21,0.14,0.31,0.25|
];
transition_y2=[
0.17,0.094,0.053,0.25,0.43|
0.26,0.2,0.16,0.16,0.22|
0.035,0.15,0.32,0.24,0.25|
0.089,0.31,0.29,0.25,0.057|
0.21,0.36,0.098,0.16,0.17|
];
transition_y3=[
0.2,0.25,0.026,0.24,0.27|
0.34,0.23,0.14,0.27,0.024|
0.21,0.083,0.28,0.16,0.27|
0.25,0.24,0.15,0.19,0.16|
0.34,0.13,0.11,0.24,0.18|
];
